200
1000
699
695
694
689
688
683
682
680
680
679
678
667
665
664
663
663
661
658
657
651
649
648
647
645
639
638
638
635
633
632
624
623
621
614
612
610
608
606
604
595
592
590
588
588
586
585
584
580
579
572
570
568
567
565
563
558
552
550
545
544
543
538
537
534
532
531
530
521
520
520
517
516
512
509
506
506
504
504
503
502
501
495
489
488
488
483
483
476
472
469
468
468
466
465
460
460
456
455
452
452
451
451
449
443
442
442
440
431
430
430
428
426
426
425
425
420
415
411
408
408
407
401
398
392
386
383
373
372
369
367
366
364
362
357
348
343
342
339
337
336
336
335
331
328
327
327
326
326
322
322
322
320
318
316
315
315
313
313
312
312
308
307
305
304
304
300
299
298
293
293
292
290
282
279
276
275
275
274
271
271
262
254
251
250
246
243
240
240
238
233
227
227
227
225
224
224
221
220
218
201
